NAME          square4D
*   Maximum: 36200 
*   Minimum: 16000

ROWS
 E  3
 E  4
 E  5
 L  0
 L  1
 L  2
 L  6
 N  c
COLUMNS
    x0        0         1.             c         -150.
    x1        1         1.             c         -100.
    x2        2         1.             c         -10.
    x2        3         1.             5         -3.
    x0        4         2.             5         3.
    x3        6         1.             c         -1.
RHS
    b         0         200.           1         200.
    b         2         200.           3         100.
    b         4         200.           6         200.
ENDATA
